(declare-fun var0 () String)
(assert (RegexIn var0 (RegexConcat (RegexUnion (RegexPlus (Str2Reg "ggg")) (RegexUnion (Str2Reg "hh") (Str2Reg "ii"))) (RegexConcat (RegexUnion (RegexPlus (Str2Reg "dd")) (RegexUnion (Str2Reg "eee") (Str2Reg "f"))) (RegexConcat (RegexStar (RegexStar (Str2Reg "ccc"))) (RegexConcat (RegexStar (RegexPlus (Str2Reg "bbb"))) (RegexConcat (RegexUnion (RegexPlus (Str2Reg "99")) (RegexStar (Str2Reg "aa"))) (RegexConcat (RegexPlus (RegexUnion (Str2Reg "7") (Str2Reg "8"))) (RegexConcat (RegexPlus (RegexUnion (Str2Reg "55") (Str2Reg "66"))) (RegexConcat (RegexPlus (RegexStar (Str2Reg "4"))) (RegexConcat (RegexUnion (RegexPlus (Str2Reg "111")) (RegexUnion (Str2Reg "222") (Str2Reg "3"))) (RegexPlus (RegexStar (Str2Reg "0"))))))))))))))
(assert (RegexIn var0 (RegexConcat (RegexStar (RegexPlus (Str2Reg "ee"))) (RegexConcat (RegexUnion (RegexStar (Str2Reg "b")) (RegexUnion (Str2Reg "ccc") (Str2Reg "ddd"))) (RegexConcat (RegexStar (RegexStar (Str2Reg "aa"))) (RegexConcat (RegexStar (RegexStar (Str2Reg "999"))) (RegexConcat (RegexStar (RegexPlus (Str2Reg "88"))) (RegexConcat (RegexPlus (RegexStar (Str2Reg "77"))) (RegexConcat (RegexStar (RegexPlus (Str2Reg "66"))) (RegexConcat (RegexUnion (RegexPlus (Str2Reg "4")) (RegexPlus (Str2Reg "55"))) (RegexConcat (RegexStar (RegexUnion (Str2Reg "222") (Str2Reg "33"))) (RegexUnion (RegexPlus (Str2Reg "0")) (RegexStar (Str2Reg "11"))))))))))))))
(assert (RegexIn var0 (RegexConcat (RegexPlus (RegexPlus (Str2Reg "ff"))) (RegexConcat (RegexStar (RegexStar (Str2Reg "ee"))) (RegexConcat (RegexStar (RegexStar (Str2Reg "dd"))) (RegexConcat (RegexPlus (RegexStar (Str2Reg "c"))) (RegexConcat (RegexUnion (RegexStar (Str2Reg "aaa")) (RegexPlus (Str2Reg "bb"))) (RegexConcat (RegexStar (RegexStar (Str2Reg "999"))) (RegexConcat (RegexUnion (RegexUnion (Str2Reg "666") (Str2Reg "77")) (RegexStar (Str2Reg "88"))) (RegexConcat (RegexStar (RegexPlus (Str2Reg "55"))) (RegexConcat (RegexUnion (RegexUnion (Str2Reg "2") (Str2Reg "33")) (RegexStar (Str2Reg "44"))) (RegexUnion (RegexPlus (Str2Reg "0")) (RegexStar (Str2Reg "11"))))))))))))))
(assert (RegexIn var0 (RegexConcat (RegexPlus (RegexUnion (Str2Reg "e") (Str2Reg "ff"))) (RegexConcat (RegexUnion (RegexPlus (Str2Reg "ccc")) (RegexStar (Str2Reg "dd"))) (RegexConcat (RegexStar (RegexUnion (Str2Reg "aaa") (Str2Reg "b"))) (RegexConcat (RegexStar (RegexStar (Str2Reg "9"))) (RegexConcat (RegexPlus (RegexStar (Str2Reg "8"))) (RegexConcat (RegexPlus (RegexPlus (Str2Reg "77"))) (RegexConcat (RegexStar (RegexUnion (Str2Reg "555") (Str2Reg "6"))) (RegexConcat (RegexStar (RegexPlus (Str2Reg "444"))) (RegexConcat (RegexStar (RegexUnion (Str2Reg "22") (Str2Reg "333"))) (RegexStar (RegexUnion (Str2Reg "000") (Str2Reg "11"))))))))))))))
(assert (RegexIn var0 (RegexConcat (RegexStar (RegexUnion (Str2Reg "c") (Str2Reg "dd"))) (RegexConcat (RegexUnion (RegexUnion (Str2Reg "999") (Str2Reg "aa")) (RegexStar (Str2Reg "b"))) (RegexConcat (RegexPlus (RegexPlus (Str2Reg "88"))) (RegexConcat (RegexStar (RegexPlus (Str2Reg "7"))) (RegexConcat (RegexStar (RegexStar (Str2Reg "666"))) (RegexConcat (RegexStar (RegexPlus (Str2Reg "55"))) (RegexConcat (RegexPlus (RegexStar (Str2Reg "444"))) (RegexConcat (RegexStar (RegexPlus (Str2Reg "3"))) (RegexConcat (RegexPlus (RegexPlus (Str2Reg "222"))) (RegexPlus (RegexUnion (Str2Reg "000") (Str2Reg "11"))))))))))))))
(assert (RegexIn var0 (RegexConcat (RegexPlus (RegexStar (Str2Reg "gg"))) (RegexConcat (RegexUnion (RegexStar (Str2Reg "e")) (RegexStar (Str2Reg "fff"))) (RegexConcat (RegexPlus (RegexPlus (Str2Reg "dd"))) (RegexConcat (RegexPlus (RegexUnion (Str2Reg "bbb") (Str2Reg "c"))) (RegexConcat (RegexStar (RegexPlus (Str2Reg "aa"))) (RegexConcat (RegexStar (RegexStar (Str2Reg "99"))) (RegexConcat (RegexUnion (RegexUnion (Str2Reg "55") (Str2Reg "666")) (RegexUnion (Str2Reg "777") (Str2Reg "88"))) (RegexConcat (RegexStar (RegexStar (Str2Reg "4"))) (RegexConcat (RegexPlus (RegexStar (Str2Reg "333"))) (RegexUnion (RegexPlus (Str2Reg "000")) (RegexUnion (Str2Reg "1") (Str2Reg "22"))))))))))))))
(assert (RegexIn var0 (RegexConcat (RegexStar (RegexUnion (Str2Reg "ee") (Str2Reg "fff"))) (RegexConcat (RegexStar (RegexUnion (Str2Reg "c") (Str2Reg "ddd"))) (RegexConcat (RegexPlus (RegexUnion (Str2Reg "a") (Str2Reg "bb"))) (RegexConcat (RegexStar (RegexPlus (Str2Reg "999"))) (RegexConcat (RegexUnion (RegexPlus (Str2Reg "7")) (RegexStar (Str2Reg "8"))) (RegexConcat (RegexUnion (RegexStar (Str2Reg "55")) (RegexPlus (Str2Reg "666"))) (RegexConcat (RegexStar (RegexStar (Str2Reg "4"))) (RegexConcat (RegexPlus (RegexPlus (Str2Reg "333"))) (RegexConcat (RegexPlus (RegexUnion (Str2Reg "11") (Str2Reg "22"))) (RegexPlus (RegexPlus (Str2Reg "00"))))))))))))))
(assert (RegexIn var0 (RegexConcat (RegexStar (RegexPlus (Str2Reg "i"))) (RegexConcat (RegexUnion (RegexPlus (Str2Reg "g")) (RegexStar (Str2Reg "hhh"))) (RegexConcat (RegexStar (RegexPlus (Str2Reg "f"))) (RegexConcat (RegexUnion (RegexUnion (Str2Reg "ccc") (Str2Reg "ddd")) (RegexPlus (Str2Reg "e"))) (RegexConcat (RegexPlus (RegexPlus (Str2Reg "bb"))) (RegexConcat (RegexStar (RegexUnion (Str2Reg "99") (Str2Reg "aaa"))) (RegexConcat (RegexUnion (RegexPlus (Str2Reg "66")) (RegexUnion (Str2Reg "7") (Str2Reg "88"))) (RegexConcat (RegexPlus (RegexUnion (Str2Reg "444") (Str2Reg "5"))) (RegexConcat (RegexUnion (RegexStar (Str2Reg "11")) (RegexUnion (Str2Reg "2") (Str2Reg "333"))) (RegexPlus (RegexStar (Str2Reg "0"))))))))))))))
(check-sat)